! rfdeembed188 example: device_expected
# GHz S RI R 50
1 0.0980066577841242 0.0198669330795061 0.326589207426416 -0.641669299244233 0.445892293982186 0.459107898175695 0.193068163615882 -0.105473618492925
1.09090909091 0.0974284530045846 0.0225321225172743 0.179954165272858 -0.697148835185822 0.369907039923009 0.522272708281217 0.191611981300099 -0.108096478306421
1.18181818182 0.0967777852723337 0.0251805535638529 0.0247866385511496 -0.719573222507157 0.285104386827244 0.572988209836696 0.190120169209334 -0.110699237846583
1.27272727273 0.0960551385251092 0.0278102564339505 -0.131556140827887 -0.7078792141393 0.19350575832571 0.610045507724458 0.188593004742363 -0.113281413136697
1.36363636364 0.0952610502354403 0.030419275271461 -0.281661216624138 -0.662621278748132 0.0972945723357044 0.632561274655675 0.18703077187165 -0.115842524027642
1.45454545455 0.0943961110109003 0.0330056696041422 -0.418411391850857 -0.585945310732519 -0.00123580462876005 0.639998806863669 0.185433761090541 -0.118382094287169
1.54545454545 0.0934609641548382 0.0355675157868532 -0.535322689001632 -0.481486883144351 -0.0997367239691001 0.632180817402673 0.183802269359248 -0.120899651688457
1.63636363636 0.092456305187919 0.0381029084322757 -0.626851786324123 -0.354198867844403 -0.19586023926214 0.609293662100778 0.182136600049634 -0.123394728097921
1.72727272727 0.0913828813308257 0.0406099618280567 -0.688658853121678 -0.210116596243931 -0.287315073782478 0.57188289743388 0.180437062888793 -0.12586685956226
1.81818181818 0.0902414909485104 0.0430868113393172 -0.71781332180864 -0.0560716954803864 -0.371921237200762 0.520840276206684 0.178703973901467 -0.128315586394731
1.90909090909 0.0890329829564052 0.0455316147954853 -0.71293284008554 0.100631831582089 -0.447661989570737 0.457382491022087 0.176937655351275 -0.130740453260624
2 0.0877582561890373 0.0479425538604203 -0.674248814849373 0.252563923936526 -0.512731913950038 0.383022172226532 0.175138435680792 -0.133141009261929
