! rfdeembed188 example: left_fixture
# MHz S MA R 50
900 0.03 28.6478897565412 0.9 -21.7723962149713 0.88 21.1994384198405 0.07 -48.70141258612
1020 0.03 21.7723962149713 0.9 -43.7739755479949 0.88 37.0130735654512 0.07 -45.263665815335
1140 0.03 14.8969026734014 0.9 -65.7755548810185 0.88 52.8267087110619 0.07 -41.8259190445501
1260 0.03 8.02140913183153 0.9 -87.7771342140421 0.88 68.6403438566726 0.07 -38.3881722737652
1380 0.03 1.14591559026165 0.9 -109.778713547066 0.88 84.4539790022833 0.07 -34.9504255029802
1500 0.03 -5.72957795130823 0.9 -131.780292880089 0.88 100.267614147894 0.07 -31.5126787321953
1620 0.03 -12.6050714928781 0.9 -153.781872213113 0.88 116.081249293505 0.07 -28.0749319614103
1740 0.03 -19.480565034448 0.9 -175.783451546137 0.88 131.894884439116 0.07 -24.6371851906254
1860 0.03 -26.3560585760179 0.9 162.21496912084 0.88 147.708519584726 0.07 -21.1994384198405
1980 0.03 -33.2315521175877 0.9 140.213389787816 0.88 163.522154730337 0.07 -17.7616916490555
2100 0.03 -40.1070456591576 0.9 118.211810454793 0.88 179.335789875948 0.07 -14.3239448782706
