! rfdeembed188 example: measurement
# Hz S RI R 50
1000000000 0.125166109261987 0.00634001627743276 -0.564989452635723 0.0412467097814375 -0.381073158776644 0.293354526694418 0.126812331545175 -0.124123503807342
1090909090.91 0.125348096003736 -0.00195435702552682 -0.32805993426592 0.462379542673718 -0.481264170995968 0.00463623158246588 0.112196510344466 -0.135793353576513
1181818181.82 0.124944747146814 -0.0102419798985433 0.147895885300186 0.547732626743859 -0.387225125461962 -0.286407534734196 0.0964751979770724 -0.145834187229899
1272727272.73 0.123957893536964 -0.0184792834956214 0.516911667670134 0.234761671120952 -0.136636122974423 -0.462180163300667 0.0798265661712367 -0.154140761083532
1363636363.64 0.122392772647718 -0.0266229409690495 0.510415110264351 -0.249343895888053 0.169475967361057 -0.451481414362683 0.0624387420501168 -0.160627159758723
1454545454.55 0.120258001401303 -0.0346301444308412 0.132720404758629 -0.552651582958673 0.407482790178856 -0.258383798162068 0.0445077215374444 -0.165227725893362
1545454545.45 0.117565525795073 -0.0424588790165241 -0.341846875669135 -0.454398140567181 0.481118916516764 0.0392950940448117 0.026235197514705 -0.167897765440626
1636363636.36 0.114330547633609 -0.0500681920684594 -0.568269514300303 -0.0256915024874071 0.360455335299982 0.321362786490558 0.00782632678423339 -0.168614020931494
1727272727.27 0.110571428838567 -0.0574184554866643 -0.381734897644179 0.421990590195119 0.0940853397514431 0.473813708531635 -0.0105125394492215 -0.167374907647575
1818181818.18 0.106309573977265 -0.0644716193409474 0.0823841758094445 0.563179368745024 -0.2104490689759 0.434946415500115 -0.0285761364815063 -0.164200510274802
1909090909.09 0.101569291815353 -0.0711914548987464 0.486816909204983 0.295094567865003 -0.430103845240553 0.220362355435453 -0.0461625531930829 -0.159132340257342
2000000000 0.0963776368576347 -0.0775437852979264 0.537560527381627 -0.187526178909319 -0.476086463185762 -0.0832949199509675 -0.0630754602826532 -0.152232856715411
