! rfdeembed188 example: right_fixture
# GHz S DB R 50
0.8 -24.4369749923271 -19.480565034448 -1.31003097512865 -33.2315521175877 -1.51441427876237 27.5019741662795 -33.9794000867204 56.1498639228207
0.916666666667 -24.4369749923271 -14.8014097075463 -1.31003097512865 -60.6380333180121 -1.51441427876237 48.2239477568443 -33.9794000867204 53.4760608788768
1.03333333333 -24.4369749923271 -10.1222543806445 -1.31003097512865 -88.0445145184365 -1.51441427876237 68.9459213474091 -33.9794000867204 50.802257834933
1.15 -24.4369749923271 -5.44309905374282 -1.31003097512864 -115.450995718861 -1.51441427876237 89.6678949379738 -33.9794000867204 48.1284547909892
1.26666666667 -24.4369749923271 -0.763943726841096 -1.31003097512865 -142.857476919285 -1.51441427876237 110.389868528539 -33.9794000867204 45.4546517470453
1.38333333333 -24.4369749923271 3.91521160006063 -1.31003097512865 -170.26395811971 -1.51441427876237 131.111842119103 -33.9794000867204 42.7808487031015
1.5 -24.4369749923271 8.59436692696235 -1.31003097512865 162.329560679866 -1.51441427876237 151.833815709668 -33.9794000867204 40.1070456591576
1.61666666667 -24.4369749923271 13.2735222538641 -1.31003097512865 134.923079479442 -1.51441427876237 172.555789300233 -33.9794000867204 37.4332426152138
1.73333333333 -24.4369749923271 17.9526775807658 -1.31003097512865 107.516598279017 -1.51441427876237 -166.722237109202 -33.9794000867204 34.7594395712699
1.85 -24.4369749923271 22.6318329076675 -1.31003097512864 80.1101170785929 -1.51441427876237 -146.000263518638 -33.9794000867204 32.0856365273261
1.96666666667 -24.4369749923271 27.3109882345692 -1.31003097512865 52.7036358781685 -1.51441427876237 -125.278289928073 -33.9794000867204 29.4118334833823
2.08333333333 -24.4369749923271 31.990143561471 -1.31003097512865 25.2971546777441 -1.51441427876237 -104.556316337508 -33.9794000867204 26.7380304394384
2.2 -24.4369749923271 36.6692988883727 -1.31003097512865 -2.10932652268018 -1.51441427876237 -83.8343427469432 -33.9794000867204 24.0642273954946
